Assets/LKHProbs~/bomb.19.tsp
NAME : GeneratedProblem
COMMENT : SVGCrosshatch
TYPE : TSP
DIMENSION : 7
EDGE_WEIGHT_TYPE : EUC_2D
NODE_COORD_SECTION
1 2100 2700
2 2200 2900
3 3000 1900
4 3400 2200
5 3800 2400
6 4100 3000
7 4400 2600
EOF
