Assets/LKHProbs~/bomb.19.out.txt
NAME : bomb.19.tour
COMMENT : Length = 479929
COMMENT : Found by LKH [Keld Helsgaun] At some point in time
TYPE : TOUR
DIMENSION : TODO add valid length
TOUR_SECTION
1
2
6
7
5
4
3
-1
EOF
